Instance name: /mnt/c/Users/ORG/CLionProjects/uMV-FSTSP/Murray_Chu_2015_test_data/FSTSP/FSTSP_10_customer_problems/20140810T123440v3

drone speed: 0.2 miles/minute
uav non-eligible customer: 4 5 
Printing number of nodes: 11

Gurobi Optimizer version 11.0.0 build v11.0.0rc2 (linux64 - "Ubuntu 22.04.3 LTS")

CPU model: 13th Gen Intel(R) Core(TM) i5-13500, instruction set [SSE2|AVX|AVX2]
Thread count: 10 physical cores, 20 logical processors, using up to 20 threads

Optimize a model with 44651 rows, 1957 columns and 1837624 nonzeros
Model fingerprint: 0x7ed2b022
Variable types: 11 continuous, 1946 integer (1814 binary)
Coefficient statistics:
  Matrix range     [1e+00, 3e+01]
  Objective range  [1e+00, 2e+01]
  Bounds range     [1e+00, 1e+00]
  RHS range        [1e+00, 9e+00]
Found heuristic solution: objective 162.6501055
Presolve removed 31123 rows and 1095 columns
Presolve time: 2.92s
Presolved: 13528 rows, 862 columns, 384208 nonzeros
Variable types: 8 continuous, 854 integer (854 binary)
Found heuristic solution: objective 139.9800034
Root relaxation presolved: 13528 rows, 862 columns, 384208 nonzeros


Root relaxation: objective 4.936613e+01, 929 iterations, 0.27 seconds (0.58 work units)

    Nodes    |    Current Node    |     Objective Bounds      |     Work
 Expl Unexpl |  Obj  Depth IntInf | Incumbent    BestBd   Gap | It/Node Time

     0     0   49.36613    0   95  139.98000   49.36613  64.7%     -    3s
H    0     0                     125.0824631   49.36613  60.5%     -    3s
H    0     0                     103.0896846   49.36613  52.1%     -    3s
H    0     0                      73.6323864   49.36613  33.0%     -    3s
     0     0   49.59710    0  137   73.63239   49.59710  32.6%     -    3s
H    0     0                      70.2059074   49.62729  29.3%     -    3s
     0     0   49.69961    0  141   70.20591   49.69961  29.2%     -    3s
     0     0   50.05631    0  173   70.20591   50.05631  28.7%     -    4s
H    0     0                      66.7536773   50.07705  25.0%     -    4s
     0     0   50.19185    0  169   66.75368   50.19185  24.8%     -    4s
     0     0   50.49538    0  150   66.75368   50.49538  24.4%     -    4s
     0     0   50.52149    0  190   66.75368   50.52149  24.3%     -    5s
     0     0   50.52149    0  166   66.75368   50.52149  24.3%     -    5s
     0     0   50.53642    0  183   66.75368   50.53642  24.3%     -    5s
     0     0   50.61092    0  203   66.75368   50.61092  24.2%     -    5s
     0     0   50.61092    0  202   66.75368   50.61092  24.2%     -    5s
     0     0   50.81901    0  208   66.75368   50.81901  23.9%     -    5s
     0     0   50.83797    0  203   66.75368   50.83797  23.8%     -    5s
     0     0   50.83797    0  217   66.75368   50.83797  23.8%     -    6s
     0     0   50.90280    0  200   66.75368   50.90280  23.7%     -    6s
     0     0   50.90280    0  200   66.75368   50.90280  23.7%     -    6s
H    0     0                      63.4702750   50.92084  19.8%     -    6s
     0     0   50.93991    0  219   63.47028   50.93991  19.7%     -    6s
     0     0   51.09841    0  226   63.47028   51.09841  19.5%     -    6s
     0     0   51.22290    0  230   63.47028   51.22290  19.3%     -    6s
H    0     0                      58.0653514   51.33935  11.6%     -    7s
     0     0   51.33935    0  227   58.06535   51.33935  11.6%     -    7s
     0     0   51.35163    0  229   58.06535   51.35163  11.6%     -    7s
     0     0   51.35163    0  233   58.06535   51.35163  11.6%     -    7s
H    0     0                      56.6736210   51.39788  9.31%     -    7s
     0     0   51.39788    0  229   56.67362   51.39788  9.31%     -    7s
     0     0   51.39788    0  225   56.67362   51.39788  9.31%     -    7s
     0     2   51.39788    0  225   56.67362   51.39788  9.31%     -    8s
    33    24   52.93561    6   64   56.67362   52.13599  8.01%   171   10s
   166    84   54.62275   16   32   56.67362   52.13599  8.01%   102   15s
   550   161     cutoff   16        56.67362   53.67783  5.29%  60.6   20s
  1016   173   55.80303   14   92   56.67362   54.16058  4.43%  50.9   25s

Cutting planes:
  Gomory: 3
  Cover: 3
  Clique: 2
  MIR: 7
  Inf proof: 2
  Zero half: 20
  RLT: 76

Explored 1661 nodes (74518 simplex iterations) in 29.34 seconds (37.21 work units)
Thread count was 20 (of 20 available processors)

Solution count 10: 56.6736 58.0654 63.4703 ... 162.65

Optimal solution found (tolerance 1.00e-04)
Best objective 5.667362104634e+01, best bound 5.667362104634e+01, gap 0.0000%
Truck arcs: 
0 2 5.99218
1 8 2.95098
2 5 5.76971
2 6 3.99917
4 8 5.54215
5 7 1.61466
6 1 3.41898
7 2 6.42059
8 10 6.0294
8 11 7.62306
10 4 4.31275
Theta:
Theta_3 = 1
Theta_9 = 1
Drone arcs:
0 9
3 4
9 8
10 3
Gamma:
gamma_3_2_5= 1
gamma_3_5_7= 1
gamma_3_7_2= 1
gamma_3_10_4= 1
gamma_9_0_2= 1
gamma_9_1_8= 1
gamma_9_2_6= 1
gamma_9_6_1= 1
Sigma:
Sigma_1 = 0
Sigma_2 = 0
Sigma_3 = -0
Sigma_4 = 0
Sigma_5 = 0
Sigma_6 = 0
Sigma_7 = 0
Sigma_8 = 0
Sigma_9 = 0
Sigma_10 = 0
Sigma_11 = 0
middle of 3 sortie are: 2 5 7 
middle of 9 sortie are: 1 2 6 
Objective: 56.6736
Number of sorties: 2
